g9 2 1 0 10 20170614 0 4 0 240	# problem ex2_1_10
 20 10 1 0 0	# vars, constraints, objectives, ranges, eqns
 0 1	# nonlinear constraints, objectives
 0 0	# network constraints: nonlinear, linear
 0 20 0	# nonlinear vars in constraints, objectives, both
 0 0 0 1	# linear network variables; functions; arith, flags
 0 0 0 0 0	# discrete variables: binary, integer, nonlinear (b,c,o)
 200 20	# nonzeros in Jacobian, gradients
 0 0	# max name lengths: constraints, variables
 0 0 0 0 0	# common exprs: b,c,o,c1,o1
b
2 0
2 0
2 0
2 0
2 0
2 0
2 0
2 0
2 0
2 0
2 0
2 0
2 0
2 0
2 0
2 0
2 0
2 0
2 0
2 0
x2
5 4.348
13 62.609
r
1 380
1 415
1 385
1 405
1 470
1 415
1 400
1 460
1 400
1 200
C0
n0
C1
n0
C2
n0
C3
n0
C4
n0
C5
n0
C6
n0
C7
n0
C8
n0
C9
n0
O0 0
o54
20
o2
n21
o5
o0
n52
v10
n2
o2
n49
o5
o0
n3
v11
n2
o2
n24
o5
o0
n-81
v12
n2
o2
n45.5
o5
o0
n-30
v13
n2
o2
n5.5
o5
o0
n85
v14
n2
o2
n31.5
o5
o0
n-68
v15
n2
o2
n30.5
o5
o0
n-27
v16
n2
o2
n30.5
o5
o0
n81
v17
n2
o2
n19
o5
o0
n-97
v18
n2
o2
n13
o5
o0
n73
v19
n2
o2
n-31.5
o5
o0
n19
v0
n2
o2
n-7.5
o5
o0
n27
v1
n2
o2
n-22
o5
o0
n23
v2
n2
o2
n-45.5
o5
o0
n53
v3
n2
o2
n-22.5
o5
o0
n42
v4
n2
o2
n-25
o5
o0
n-26
v5
n2
o2
n-44.5
o5
o0
n33
v6
n2
o2
n-29
o5
o0
n23
v7
n2
o2
n-43
o5
o0
n-41
v8
n2
o2
n-41
o5
o0
n-19
v9
n2
k19
10
20
30
40
50
60
70
80
90
100
110
120
130
140
150
160
170
180
190
J0 20
0 3
1 5
2 5
3 6
4 4
5 4
6 5
7 6
8 4
9 4
10 8
11 4
12 2
13 1
14 1
15 1
16 2
17 1
18 7
19 3
J1 20
0 5
1 4
2 5
3 4
4 1
5 4
6 4
7 2
8 5
9 2
10 3
11 6
12 1
13 7
14 7
15 5
16 8
17 7
18 2
19 1
J2 20
0 1
1 5
2 2
3 4
4 7
5 3
6 1
7 5
8 7
9 6
10 1
11 7
12 2
13 4
14 7
15 5
16 3
17 4
18 1
19 2
J3 20
0 3
1 2
2 6
3 3
4 2
5 1
6 6
7 1
8 7
9 3
10 7
11 7
12 8
13 2
14 3
15 4
16 5
17 8
18 1
19 2
J4 20
0 6
1 6
2 6
3 4
4 5
5 2
6 2
7 4
8 3
9 2
10 7
11 5
12 3
13 6
14 7
15 5
16 8
17 4
18 6
19 3
J5 20
0 5
1 5
2 2
3 1
4 3
5 5
6 5
7 7
8 4
9 3
10 4
11 1
12 7
13 3
14 8
15 3
16 1
17 6
18 2
19 8
J6 20
0 3
1 6
2 6
3 3
4 1
5 6
6 1
7 6
8 7
9 1
10 4
11 3
12 1
13 4
14 3
15 6
16 4
17 6
18 5
19 4
J7 20
0 1
1 2
2 1
3 7
4 8
5 7
6 6
7 5
8 8
9 7
10 2
11 3
12 5
13 5
14 4
15 5
16 4
17 2
18 2
19 8
J8 20
0 8
1 5
2 2
3 5
4 3
5 8
6 1
7 3
8 3
9 5
10 4
11 5
12 5
13 6
14 1
15 7
16 1
17 2
18 2
19 4
J9 20
0 1
1 1
2 1
3 1
4 1
5 1
6 1
7 1
8 1
9 1
10 1
11 1
12 1
13 1
14 1
15 1
16 1
17 1
18 1
19 1
G0 20
0 0
1 0
2 0
3 0
4 0
5 0
6 0
7 0
8 0
9 0
10 0
11 0
12 0
13 0
14 0
15 0
16 0
17 0
18 0
19 0
